c ---- [ banner ] ------------------------------------------------------------
c
c Kissat SAT Solver
c 
c Copyright (c) 2021-2023 Armin Biere University of Freiburg
c Copyright (c) 2019-2021 Armin Biere Johannes Kepler University Linz
c 
c Version 3.1.1 unknown
c gcc (Ubuntu 9.4.0-1ubuntu1~20.04.2) 9.4.0 -W -Wall -O3 -DNDEBUG
c Mon Feb 26 18:18:52 CET 2024 Linux OptiPlex-7080 5.15.0-88-generic x86_64
c
c ---- [ parsing ] -----------------------------------------------------------
c
c opened and reading DIMACS file:
c
c   /home/oliveras/SAT-comp-2023//79c109a8c1da53c6b636d3835f11a19d-grs-64-32.cnf
c
c parsed 'p cnf 56794 166548' header
c closing input after reading 3149770 bytes (3 MB)
c finished parsing after 0.07 seconds
c
c ---- [ options ] -----------------------------------------------------------
c
c --seed=1                         (different from default '0')
c
c ---- [ solving ] -----------------------------------------------------------
c
c  seconds switched conflicts    irredundant  variables
c         MB reductions redundant        trail     remaining
c          level restarts    binary         glue
c
c *  0.07 14 0 0 0  0   0   0 53772 112426 0% 0 56444 99%
c {  0.07 14 0 0 0  0   0   0 53772 112426 0% 0 56444 99%
c i  0.07 14 37 0 0  0   1   0 53772 112426 2% 0 56443 99%
c i  0.08 14 22 0 0  1   4   2 53772 112426 23% 1 56442 99%
c i  0.17 15 99 0 0 37 232 183 53795 112425 56% 3 56441 99%
c i  0.17 15 98 0 0 41 236 186 53795 112425 56% 3 56440 99%
c i  0.17 15 97 0 0 42 237 186 53795 112425 56% 3 56439 99%
c i  0.18 15 97 0 0 47 245 191 53796 112424 55% 3 56438 99%
c i  0.18 15 95 0 0 51 250 195 53796 112424 54% 4 56437 99%
c i  0.27 15 154 0 0 82 303 247 53796 112424 59% 4 56436 99%
c i  0.27 15 152 0 0 85 307 250 53796 112424 59% 4 56435 99%
c i  0.27 15 150 0 0 87 310 251 53797 112424 58% 4 56434 99%
c i  0.36 15 183 0 0 108 403 340 53798 112424 66% 4 56433 99%
c i  0.36 15 181 0 0 109 406 342 53798 112424 65% 4 56432 99%
c i  0.47 15 176 0 0 141 472 405 53799 112423 68% 5 56431 99%
c i  0.47 15 175 0 0 141 473 405 53799 112423 68% 5 56430 99%
c -  0.84 15 284 0 1 243 1000 728 53105 112423 68% 6 56430 99%
c }  0.84 15 284 1 1 243 1000 728 53105 112423 68% 6 56430 99%
c [  0.84 15 0 1 1 243 1000 728 53105 112423 0% 0 56430 99%
c B  0.84 15 202 1 1 243 1002 730 53105 112423 88% 3 56430 99%
c
c  seconds   switched conflicts       irredundant   variables
c         MB  reductions   redundant           trail     remaining
c           level restarts        binary          glue
c
c -  1.27 16 438 1 2 243 2000 1608 53108 112422 73% 9 56430 99%
c W  1.30 16 438 1 2 243 2003 1611 53108 112358 73% 9 56430 99%
c i  1.45 16 293 1 2 244 2626 2210 53117 112356 68% 9 56429 99%
c b  1.54 17 289 1 2 244 2725 2304 53561 111910 68% 9 56193 99%
c u  1.56 17 289 1 2 244 2725 2295 53570 111910 68% 9 56193 99%
c v  1.62 17 289 1 2 244 2725 2294 53570 111910 68% 9 56193 99%
c w  1.67 17 289 1 2 244 2725 2294 54516 110412 68% 9 56164 99%
c =  1.82 18 289 1 2 244 2725 2294 55948 110368 68% 9 55447 98%
c d  1.83 18 289 1 2 244 2725 2292 52729 110196 68% 9 55165 97%
c t  1.85 18 289 1 2 244 2725 2292 52710 110196 68% 9 55165 97%
c i  1.85 18 289 1 2 244 2725 2292 52710 110196 68% 9 55165 97%
c -  1.98 18 457 1 3 245 3414 2172 52191 110196 62% 10 55165 97%
c I  2.10 18 350 1 3 245 4263 3005 52195 110196 63% 12 55165 97%
c i  2.10 18 349 1 3 245 4267 3007 52196 110196 63% 12 55164 97%
c ]  2.22 18 294 2 3 245 5100 3779 52224 110181 58% 11 55164 97%
c {  2.22 18 284 2 3 245 5100 3779 52224 110181 68% 6 55164 97%
c -  2.23 18 279 2 4 245 5148 2743 52224 110180 67% 6 55164 97%
c u  2.52 18 235 2 4 246 5441 3033 52230 110175 71% 6 55164 97%
c v  2.54 18 235 2 4 246 5441 3033 52230 110175 71% 6 55164 97%
c w  2.58 18 235 2 4 246 5441 3036 52230 110172 71% 6 55164 97%
c
c  seconds   switched conflicts       irredundant   variables
c         MB  reductions   redundant           trail     remaining
c           level restarts        binary          glue
c
c =  2.64 18 235 2 4 246 5441 3036 52300 110143 71% 6 55125 97%
c d  2.65 18 235 2 4 246 5441 3032 52218 110142 71% 6 55124 97%
c t  2.66 18 235 2 4 246 5441 3032 52211 110142 71% 6 55124 97%
c }  2.88 18 175 3 4 247 6100 3660 52225 110141 68% 5 55124 97%
c [  2.88 18 294 3 4 247 6100 3660 52225 110141 58% 11 55124 97%
c -  3.10 19 333 3 5 247 7150 3489 52229 110141 62% 12 55124 97%
c B  3.19 19 353 3 5 248 8035 4348 52236 110141 60% 17 55124 97%
c -  3.43 22 314 3 6 249 9386 3490 52242 110141 60% 17 55124 97%
c ]  3.58 22 284 4 6 250 10684 4737 52256 110141 64% 18 55124 97%
c {  3.58 22 175 4 6 250 10684 4737 52256 110141 68% 5 55124 97%
c i  3.77 22 161 4 6 336 11054 5069 52275 110137 64% 5 55122 97%
c d  3.80 22 161 4 6 349 11089 5098 52282 110130 64% 5 55121 97%
c d  3.80 22 161 4 6 349 11089 5098 52274 110130 64% 5 55117 97%
c b  3.81 22 161 4 6 349 11089 5098 52274 110130 64% 5 55114 97%
c u  3.84 22 161 4 6 349 11089 5098 52274 110130 64% 5 55114 97%
c v  3.87 22 161 4 6 349 11089 5098 52274 110130 64% 5 55114 97%
c w  3.92 22 161 4 6 349 11089 5099 52282 110121 64% 5 55114 97%
c =  4.03 22 161 4 6 349 11089 5099 52440 110121 64% 5 55035 97%
c d  4.04 22 161 4 6 349 11089 5098 52269 110121 64% 5 55034 97%
c t  4.06 22 161 4 6 349 11089 5098 52260 110121 64% 5 55033 97%
c
c  seconds   switched  conflicts       irredundant   variables
c         MB  reductions    redundant           trail     remaining
c           level restarts         binary          glue
c
c i  4.16 22 206 4 6 369 11285 5288 52262 110120 65% 5 55030 97%
c i  4.20 22 198 4 6 394 11444 5429 52269 110120 63% 5 55029 97%
c -  4.29 22 187 4 7 407 11838 3879 52232 110119 64% 5 55028 97%
c i  4.43 22 193 4 7 431 12124 4099 52238 110118 64% 5 55027 97%
c i  4.45 22 192 4 7 448 12170 4137 52243 110118 63% 5 55026 97%
c }  4.71 22 180 5 7 489 13036 4958 52251 110117 61% 5 55026 97%
c [  4.71 22 284 5 7 489 13036 4958 52251 110117 64% 18 55026 97%
c W  4.84 23 333 5 7 489 13565 5482 52248 110106 64% 17 55026 97%
c 2  4.85 23 331 5 7 489 13628 5545 52215 110106 64% 17 55026 97%
c s  4.87 23 331 5 7 489 13628 5545 52398 109584 64% 17 55026 97%
c e  5.38 20 331 5 7 489 13628 5545 8841 55959 64% 17 10866 19%
c s  5.40 20 331 5 7 489 13628 5545 8909 55437 64% 17 10866 19%
c e  5.41 20 331 5 7 489 13628 5545 8835 55336 64% 17 10796 19%
c ^  5.41 20 331 5 7 489 13628 5545 8835 55336 64% 17 10796 19%
c -  5.50 16 313 5 8 490 14483 524 8865 55334 64% 18 10796 19%
c -  5.70 16 279 5 9 492 17311 1384 8870 55334 62% 21 10796 19%
c d  5.93 17 248 5 9 494 19858 3888 8877 55334 60% 21 10795 19%
c u  5.95 17 248 5 9 494 19858 3887 8878 55334 60% 21 10795 19%
c v  5.99 17 248 5 9 494 19858 3886 8879 55334 60% 21 10795 19%
c w  6.04 15 248 5 9 494 19858 4083 9197 54814 60% 21 10792 19%
c
c  seconds   switched  conflicts      irredundant   variables
c         MB  reductions    redundant         trail      remaining
c           level restarts         binary         glue
c
c =  6.14 15 248 5 9 494 19858 4083 9377 54621 60% 21 10702 19%
c d  6.14 15 248 5 9 494 19858 4079 9198 54617 60% 21 10702 19%
c t  6.15 15 248 5 9 494 19858 4079 8912 54617 60% 21 10702 19%
c i  6.15 15 248 5 9 494 19858 4079 8912 54617 60% 21 10702 19%
c -  6.18 15 242 5 10 494 20312 2105 8905 54617 60% 20 10702 19%
c O  6.21 15 234 5 10 494 21093 2865 8905 54617 59% 20 10702 19%
c -  6.44 15 207 5 11 495 23475 2275 8925 54612 59% 19 10702 19%
c s  6.60 16 192 5 11 495 25188 3939 9111 54185 60% 18 10702 19%
c e  6.65 16 192 5 11 495 25188 3939 8824 54625 60% 18 10476 18%
c s  6.66 16 192 5 11 495 25188 3939 8895 54190 60% 18 10476 18%
c e  6.67 16 192 5 11 495 25188 3939 8881 54210 60% 18 10457 18%
c ^  6.67 16 192 5 11 495 25188 3939 8881 54210 60% 18 10457 18%
c -  6.78 16 182 5 12 497 26791 2068 8884 54210 60% 18 10457 18%
c u  6.98 16 161 5 12 499 30124 5372 8890 54210 62% 17 10457 18%
c v  7.00 16 161 5 12 499 30124 5372 8890 54210 62% 17 10457 18%
c w  7.03 16 161 5 12 499 30124 5430 8902 54140 62% 17 10457 18%
c =  7.07 16 161 5 12 499 30124 5430 8940 54104 62% 17 10438 18%
c d  7.07 16 161 5 12 499 30124 5430 8900 54104 62% 17 10438 18%
c t  7.08 16 161 5 12 499 30124 5430 8833 54104 62% 17 10438 18%
c -  7.09 16 160 5 13 499 30258 2881 8833 54104 62% 17 10438 18%
c
c  seconds   switched   conflicts      irredundant   variables
c         MB   reductions    redundant         trail      remaining
c           level  restarts         binary         glue
c
c B  7.11 16 157 5 13 500 30854 3476 8833 54104 62% 17 10438 18%
c -  7.28 16 149 5 14 502 33864 3255 8839 54104 61% 18 10438 18%
c -  7.45 16 140 5 15 502 37606 3200 8841 54104 60% 20 10438 18%
c ]  7.60 16 134 6 15 503 40225 5759 8846 54104 60% 20 10438 18%
c {  7.60 16 180 6 15 503 40225 5759 8846 54104 61% 5 10438 18%
c i  7.60 16 179 6 15 504 40233 5766 8846 54104 61% 5 10437 18%
c i  7.61 16 179 6 15 512 40261 5788 8851 54104 61% 5 10435 18%
c i  7.61 16 179 6 15 512 40262 5788 8851 54104 61% 5 10432 18%
c -  7.83 17 150 6 16 929 41478 3704 8671 54100 56% 6 10432 18%
c d  8.21 17 124 6 16 1454 43320 5481 8692 53998 55% 9 10430 18%
c u  8.24 17 124 6 16 1454 43320 5468 8705 53998 55% 9 10430 18%
c v  8.27 17 124 6 16 1454 43320 5433 8740 53998 55% 9 10430 18%
c w  8.31 17 124 6 16 1454 43320 5594 8761 53816 55% 9 10430 18%
c =  8.39 17 124 6 16 1454 43320 5594 9105 53475 55% 9 10258 18%
c d  8.39 17 124 6 16 1454 43320 5593 8758 53475 55% 9 10258 18%
c t  8.40 17 124 6 16 1454 43320 5593 8673 53475 55% 9 10258 18%
c }  8.58 17 115 7 16 1710 44295 6548 8684 53474 54% 10 10258 18%
c [  8.58 17 134 7 16 1710 44295 6548 8684 53474 60% 20 10258 18%
c W  8.59 17 134 7 16 1710 44295 6548 8684 53474 60% 20 10258 18%
c -  8.64 17 130 7 17 1711 45479 4306 8688 53470 60% 20 10258 18%
c
c  seconds   switched    conflicts      irredundant   variables
c         MB   reductions     redundant         trail      remaining
c           level   restarts         binary         glue
c
c -  8.87 15 120 7 18 1714 49602 4595 8693 53470 61% 19 10258 18%
c s  8.89 15 120 7 18 1714 50164 5155 8739 53150 61% 19 10258 18%
c e  8.96 15 120 7 18 1714 50164 5155 8118 55225 61% 19 9470 17%
c s  8.97 16 120 7 18 1714 50164 5155 8219 54816 61% 19 9470 17%
c e  8.99 16 120 7 18 1714 50164 5155 8197 54869 61% 19 9449 17%
c ^  8.99 16 120 7 18 1714 50164 5155 8197 54869 61% 19 9449 17%
c -  9.19 16 113 7 19 1716 53844 3944 8197 54869 63% 19 9449 17%
c -  9.33 16 104 7 20 1718 58204 3929 8197 54869 60% 19 9449 17%
c I  9.36 16 103 7 20 1719 59199 4913 8197 54869 60% 19 9449 17%
c u  9.40 16 102 7 20 1719 59520 5111 8318 54869 60% 19 9449 17%
c v  9.42 16 102 7 20 1719 59520 5111 8318 54869 60% 19 9449 17%
c w  9.45 16 102 7 20 1719 59520 5112 8490 54696 60% 19 9449 17%
c =  9.51 16 102 7 20 1719 59520 5112 8686 54504 60% 19 9351 16%
c d  9.51 16 102 7 20 1719 59520 5110 8486 54504 60% 19 9351 16%
c t  9.52 16 102 7 20 1719 59520 5110 8180 54504 60% 19 9351 16%
c -  9.63 16 97 7 21 1721 62678 3716 8181 54504 60% 18 9351 16%
c -  9.78 17 90 7 22 1723 67260 3682 8181 54504 59% 18 9351 16%
c -  9.94 17 85 7 23 1724 71951 3671 8181 54504 55% 17 9351 16%
c ] 10.18 17 86 8 23 1724 75001 6684 8182 54504 55% 17 9351 16%
c { 10.18 17 115 8 23 1724 75001 6684 8182 54504 54% 10 9351 16%
c
c  seconds   switched    conflicts      irredundant variables
c         MB   reductions     redundant         trail    remaining
c           level   restarts         binary        glue
c
c - 10.32 17 108 8 24 1768 76748 4717 8194 54502 54% 9 9351 16%
c d 10.50 15 104 8 24 1827 78898 6742 8200 54477 54% 9 9346 16%
c u 10.52 16 104 8 24 1827 78898 6724 8218 54477 54% 9 9346 16%
c v 10.55 16 104 8 24 1827 78898 6723 8219 54477 54% 9 9346 16%
c w 10.58 16 104 8 24 1827 78898 6728 8376 54315 54% 9 9346 16%
c = 10.64 16 104 8 24 1827 78898 6728 8544 54148 54% 9 9262 16%
c d 10.64 16 104 8 24 1827 78898 6728 8375 54148 54% 9 9262 16%
c t 10.65 16 104 8 24 1827 78898 6728 8176 54148 54% 9 9262 16%
c } 10.85 16 99 9 24 2011 81160 8894 8186 54143 52% 9 9262 16%
c [ 10.85 16 86 9 24 2011 81160 8894 8186 54143 55% 17 9262 16%
c B 10.85 16 86 9 24 2011 81160 8894 8186 54143 55% 17 9262 16%
c - 10.88 16 86 9 25 2011 81647 6630 8186 54143 55% 17 9262 16%
c - 11.09 16 82 9 26 2015 86649 7042 8188 54142 52% 17 9262 16%
c s 11.21 17 79 9 26 2017 90390 10737 8241 53417 49% 17 9262 16%
c e 11.30 14 79 9 26 2017 90390 10737 7744 55031 49% 17 8929 16%
c s 11.31 14 79 9 26 2017 90390 10737 7804 54404 49% 17 8929 16%
c e 11.32 14 79 9 26 2017 90390 10737 7792 54436 49% 17 8916 16%
c ^ 11.32 14 79 9 26 2017 90390 10737 7792 54436 49% 17 8916 16%
c - 11.37 15 78 9 27 2017 91748 5247 7792 54436 48% 17 8916 16%
c - 11.54 16 74 9 28 2020 96945 4905 7792 54436 45% 17 8916 16%
c
c  seconds   switched    conflicts       irredundant  variables
c         MB   reductions      redundant         trail     remaining
c          level    restarts          binary         glue
c
c ] 11.66 16 71 10 28 2023 100866 8786 7792 54436 44% 17 8916 16%
c { 11.66 16 99 10 28 2023 100866 8786 7792 54436 52% 9 8916 16%
c u 11.74 16 98 10 28 2040 101519 9424 7798 54436 53% 9 8916 16%
c v 11.76 16 98 10 28 2040 101519 9420 7802 54436 53% 9 8916 16%
c w 11.79 16 98 10 28 2040 101519 9436 7853 54369 53% 9 8916 16%
c = 11.85 16 98 10 28 2040 101519 9436 7887 54353 53% 9 8899 16%
c d 11.85 16 98 10 28 2040 101519 9435 7853 54353 53% 9 8899 16%
c t 11.86 16 98 10 28 2040 101519 9435 7755 54353 53% 9 8899 16%
c - 11.94 16 98 10 29 2087 102237 5479 7760 54350 53% 9 8899 16%
c - 12.26 17 91 10 30 2193 107622 7333 7781 54338 54% 9 8899 16%
c } 12.36 17 90 11 30 2244 109493 9163 7784 54338 55% 9 8899 16%
c [ 12.36 17 71 11 30 2244 109493 9163 7784 54338 44% 17 8899 16%
c W 12.37 17 71 11 30 2244 109493 9163 7784 54338 44% 17 8899 16%
c - 12.54 17 71 11 31 2246 113100 8675 7784 54338 43% 16 8899 16%
c - 12.70 17 69 11 32 2250 118670 8025 7784 54338 41% 16 8899 16%
c - 12.86 15 66 11 33 2253 124327 7339 7784 54338 38% 16 8899 16%
c d 12.95 15 64 11 33 2255 127457 10402 7768 54319 37% 16 8891 16%
c u 12.98 16 64 11 33 2255 127457 10391 7779 54319 37% 16 8891 16%
c v 13.00 16 64 11 33 2255 127457 10331 7839 54319 37% 16 8891 16%
c w 13.04 16 64 11 33 2255 127457 10331 7842 54316 37% 16 8891 16%
c
c  seconds   switched    conflicts        irredundant  variables
c         MB   reductions       redundant         trail     remaining
c          level    restarts           binary         glue
c
c = 13.11 16 64 11 33 2255 127457 10331 8014 54049 37% 16 8784 15%
c d 13.12 16 64 11 33 2255 127457 10329 7840 54043 37% 16 8784 15%
c t 13.12 16 64 11 33 2255 127457 10329 7710 54043 37% 16 8784 15%
c ] 13.26 16 64 12 33 2256 129374 12203 7710 54043 37% 16 8784 15%
c { 13.26 16 90 12 33 2256 129374 12203 7710 54043 55% 9 8784 15%
c - 13.28 17 88 12 34 2257 130072 7720 7666 54039 55% 9 8784 15%
c - 13.63 17 79 12 35 2446 135903 9825 7691 54027 54% 8 8784 15%
c } 14.03 17 74 13 35 2715 140853 14606 7711 54023 53% 8 8784 15%
c [ 14.03 17 64 13 35 2715 140853 14606 7711 54023 37% 16 8784 15%
c O 14.03 17 64 13 35 2715 140853 14606 7711 54023 37% 16 8784 15%
c - 14.06 17 63 13 36 2715 141819 11866 7712 54023 38% 16 8784 15%
c s 14.28 17 62 13 36 2720 147412 17292 7781 53470 38% 15 8784 15%
c e 14.41 15 62 13 36 2720 147412 17292 6827 60124 38% 15 7846 14%
c 2 14.41 15 62 13 36 2720 147412 17292 6826 60124 38% 15 7846 14%
c s 14.44 15 62 13 36 2720 147412 17292 6885 59022 38% 15 7846 14%
c e 14.47 15 62 13 36 2720 147412 17292 6855 59095 38% 15 7820 14%
c ^ 14.47 15 62 13 36 2720 147412 17292 6855 59095 38% 15 7820 14%
c - 14.49 17 62 13 37 2720 147820 7637 6855 59095 37% 15 7820 14%
c - 14.78 17 60 13 38 2722 153902 8573 6855 59095 38% 14 7820 14%
c u 14.90 17 59 13 38 2724 156790 11376 6870 59095 37% 14 7820 14%
c
c  seconds   switched    conflicts        irredundant  variables
c         MB   reductions       redundant         trail     remaining
c          level    restarts           binary         glue
c
c v 14.94 17 59 13 38 2724 156790 11374 6872 59095 37% 14 7820 14%
c w 14.99 18 59 13 38 2724 156790 11379 6873 59089 37% 14 7820 14%
c = 15.07 18 59 13 38 2724 156790 11379 6875 59088 37% 14 7819 14%
c d 15.07 18 59 13 38 2724 156790 11379 6872 59088 37% 14 7819 14%
c t 15.08 18 59 13 38 2724 156790 11379 6726 59088 37% 14 7818 14%
c - 15.16 18 58 13 39 2727 160067 9631 6724 59088 36% 14 7818 14%
c ] 15.50 18 57 14 39 2728 165235 14682 6725 59088 38% 14 7818 14%
c { 15.50 18 74 14 39 2728 165235 14682 6725 59088 53% 8 7818 14%
c - 15.57 18 73 14 40 2805 166313 11537 6730 59084 54% 8 7818 14%
c - 15.83 18 67 14 41 2869 172638 13971 6739 59082 57% 8 7818 14%
c - 16.35 18 64 14 42 3410 179041 14666 6748 59079 55% 8 7818 14%
c } 16.41 16 64 15 42 3463 179950 15559 6748 59079 55% 8 7818 14%
c [ 16.41 16 57 15 42 3463 179950 15559 6748 59079 38% 14 7818 14%
c B 16.41 16 57 15 42 3463 179950 15559 6748 59079 38% 14 7818 14%
c - 16.81 17 57 15 43 3467 185521 14326 6748 59079 39% 13 7818 14%
c d 17.08 17 58 15 43 3469 190013 18731 6732 59056 40% 13 7810 14%
c u 17.13 17 58 15 43 3469 190013 17313 8150 59056 40% 13 7810 14%
c v 17.18 18 58 15 43 3469 190013 17312 8151 59056 40% 13 7810 14%
c w 17.25 18 58 15 43 3469 190013 17312 8160 59047 40% 13 7810 14%
c = 17.36 18 58 15 43 3469 190013 17312 8162 59020 40% 13 7804 14%
c
c  seconds   switched    conflicts        irredundant  variables
c         MB   reductions       redundant         trail     remaining
c          level    restarts           binary         glue
c
c d 17.37 18 58 15 43 3469 190013 17312 8160 59019 40% 13 7804 14%
c t 17.38 18 58 15 43 3469 190013 17312 6693 59019 40% 13 7804 14%
c - 17.52 18 59 15 44 3469 192078 12094 6682 59019 41% 13 7804 14%
c ] 17.98 18 58 16 44 3473 197627 17553 6682 59019 42% 13 7804 14%
c { 17.98 18 64 16 44 3473 197627 17553 6682 59019 55% 8 7804 14%
c - 18.07 18 63 16 45 3599 198712 11820 6686 59019 55% 8 7804 14%
c - 18.62 17 60 16 46 4308 205420 12932 6701 59015 53% 8 7804 14%
c - 19.20 18 58 16 47 5236 212202 14201 6719 59012 50% 8 7804 14%
c } 19.48 18 57 17 47 5581 215965 17875 6727 59010 49% 8 7804 14%
c [ 19.48 18 58 17 47 5581 215965 17875 6727 59010 42% 13 7804 14%
c W 19.49 18 58 17 47 5581 215965 17875 6727 59010 42% 13 7804 14%
c - 19.72 18 57 17 48 5583 219057 15280 6727 59010 43% 13 7804 14%
c 2 20.02 18 55 17 48 5586 223685 19859 6727 59010 44% 12 7803 14%
c s 20.03 18 55 17 48 5586 223685 19859 6761 58512 44% 12 7803 14%
c e 20.14 16 55 17 48 5586 223685 19859 6173 67073 44% 12 7117 13%
c s 20.17 16 55 17 48 5586 223685 19859 6255 65435 44% 12 7117 13%
c e 20.21 16 55 17 48 5586 223685 19859 6221 65674 44% 12 7084 12%
c ! 20.21 16 55 17 48 5586 223685 19859 6221 65674 44% 12 7084 12%
c - 20.45 17 54 17 49 5587 225986 9638 6231 65674 44% 12 7084 12%
c u 20.58 17 54 17 49 5587 226824 10275 6445 65658 44% 12 7083 12%
c
c  seconds   switched    conflicts       irredundant  variables
c         MB   reductions      redundant         trail     remaining
c          level    restarts          binary         glue
c
c v 20.65 18 54 17 49 5587 226824 9936 6784 65658 44% 12 7083 12%
c w 20.74 18 54 17 49 5587 226824 9950 6832 65409 44% 12 7083 12%
c = 20.91 18 54 17 49 5587 226824 9950 7078 65325 44% 12 6958 12%
c d 20.92 18 54 17 49 5587 226824 9388 6846 65202 44% 12 6957 12%
c t 20.93 18 54 17 49 5587 226824 9388 6218 65202 44% 12 6957 12%
c i 20.93 18 54 17 49 5587 226824 9388 6218 65202 44% 12 6957 12%
c - 21.40 19 52 17 50 5591 232986 9059 6144 65202 46% 12 6957 12%
c - 21.93 19 50 17 51 5594 240057 9867 6147 65202 47% 12 6957 12%
c ] 22.23 19 48 18 51 5595 243958 13750 6147 65201 48% 12 6957 12%
c { 22.23 19 57 18 51 5595 243958 13750 6147 65201 49% 8 6957 12%
c - 22.51 19 55 18 52 5753 247198 10955 6159 65199 50% 8 6957 12%
c - 23.14 18 52 18 53 5810 254409 13407 6174 65199 52% 8 6957 12%
c - 23.92 19 49 18 54 5945 261690 15497 6215 65197 54% 8 6957 12%
c } 24.31 19 47 19 54 6043 266305 20040 6239 65197 54% 8 6957 12%
c [ 24.31 19 48 19 54 6043 266305 20040 6239 65197 48% 12 6957 12%
c I 24.31 19 48 19 54 6043 266305 20040 6239 65197 48% 12 6957 12%
c b 24.40 19 49 19 54 6044 267937 21656 6239 65197 49% 12 6956 12%
c u 24.47 19 49 19 54 6044 267937 21580 6299 65197 49% 12 6956 12%
c v 24.57 21 49 19 54 6044 267937 21515 6301 65197 49% 12 6956 12%
c w 24.66 22 49 19 54 6044 267937 21526 6380 64761 49% 12 6956 12%
c
c  seconds   switched    conflicts        irredundant  variables
c         MB   reductions       redundant         trail     remaining
c          level    restarts           binary         glue
c
c = 24.82 22 49 19 54 6044 267937 21526 6518 64741 49% 12 6887 12%
c d 24.83 22 49 19 54 6044 267937 21047 6379 64741 49% 12 6887 12%
c t 24.84 22 49 19 54 6044 267937 21047 6191 64741 49% 12 6887 12%
c - 24.91 17 50 19 55 6045 269039 15218 6188 64741 49% 12 6887 12%
c - 25.32 19 50 19 56 6049 276455 13512 6188 64741 50% 12 6887 12%
c - 25.72 19 52 19 57 6054 283938 11673 6188 64741 52% 12 6887 12%
c - 26.15 19 52 19 58 6057 291489 11455 6188 64741 52% 12 6887 12%
c - 26.53 19 52 19 59 6057 299104 11769 6189 64741 53% 12 6887 12%
c B 26.91 19 53 19 59 6063 305745 18350 6189 64741 54% 12 6887 12%
c - 26.94 19 54 19 60 6063 306786 12039 6189 64741 54% 12 6887 12%
c ] 27.03 20 55 20 60 6064 308787 14007 6190 64741 54% 12 6887 12%
c { 27.03 20 47 20 60 6064 308787 14007 6190 64741 54% 8 6887 12%
c u 27.35 20 46 20 60 6515 312787 17738 6238 64741 52% 8 6887 12%
c v 27.40 22 46 20 60 6515 312787 17695 6281 64741 52% 8 6887 12%
c w 27.47 18 46 20 60 6515 312787 17699 6288 64730 52% 8 6887 12%
c = 27.59 18 46 20 60 6515 312787 17699 6312 64706 52% 8 6875 12%
c d 27.59 18 46 20 60 6515 312787 17697 6288 64706 52% 8 6875 12%
c t 27.60 18 46 20 60 6515 312787 17697 6193 64706 52% 8 6875 12%
c - 27.76 19 46 20 61 6903 314531 13021 6195 64706 52% 8 6875 12%
c s 28.20 19 46 20 61 7614 321552 19917 6282 61543 49% 8 6875 12%
c
c  seconds   switched    conflicts        irredundant variables
c         MB   reductions       redundant         trail    remaining
c          level    restarts           binary        glue
c
c e 28.27 17 46 20 61 7614 321552 19917 6075 62464 49% 8 6729 12%
c 2 28.27 17 46 20 61 7614 321552 19917 6074 62464 49% 8 6729 12%
c s 28.28 17 46 20 61 7614 321552 19917 6086 61845 49% 8 6729 12%
c e 28.30 17 46 20 61 7614 321552 19917 6077 61918 49% 8 6724 12%
c - 28.38 18 46 20 62 7708 322341 14121 6078 61917 49% 8 6724 12%
c - 28.87 19 45 20 63 8269 330217 16393 6086 61917 48% 8 6724 12%
c } 29.11 19 44 21 63 8543 335527 21509 6086 61917 46% 8 6724 12%
c [ 29.11 19 55 21 63 8543 335527 21509 6086 61917 54% 12 6724 12%
c - 29.23 19 57 21 64 8545 338154 16893 6086 61917 54% 12 6724 12%
c - 29.53 20 60 21 65 8549 346154 15620 6086 61917 55% 12 6724 12%
c W 29.71 20 61 21 65 8551 349458 18872 6086 61917 55% 12 6724 12%
c - 29.94 20 60 21 66 8555 354216 13913 6086 61917 55% 12 6724 12%
c u 30.35 19 59 21 66 8557 361494 21017 6101 61917 53% 12 6724 12%
c v 30.41 19 59 21 66 8557 361494 20836 6282 61917 53% 12 6724 12%
c w 30.50 20 59 21 66 8557 361494 20849 6304 61882 53% 12 6724 12%
c = 30.64 20 59 21 66 8557 361494 20849 6380 61771 53% 12 6623 12%
c d 30.65 20 59 21 66 8557 361494 20220 6368 60902 53% 12 6623 12%
c d 30.65 20 59 21 66 8557 361494 20220 6342 60882 53% 12 6610 12%
c t 30.66 20 59 21 66 8557 361494 20220 6059 60882 53% 12 6610 12%
c - 30.69 20 59 21 67 8557 362341 13455 5987 60882 53% 12 6610 12%
c
c  seconds   switched    conflicts        irredundant  variables
c         MB   reductions       redundant         trail     remaining
c          level    restarts           binary         glue
c
c - 31.01 20 57 21 68 8559 370526 14235 5990 60882 54% 12 6610 12%
c - 31.44 18 57 21 69 8564 378772 14564 5991 60882 54% 12 6610 12%
c ] 31.61 18 56 22 69 8566 382951 18629 5991 60882 54% 12 6610 12%
c { 31.61 19 44 22 69 8566 382951 18629 5991 60882 46% 8 6610 12%
c - 32.08 19 44 22 70 9048 387079 15725 5994 60881 47% 8 6610 12%
c i 32.30 19 44 22 70 9651 389782 18355 6002 60881 46% 8 6609 12%
c - 32.69 20 43 22 71 10176 395445 16778 6006 60881 45% 8 6609 12%
c - 33.36 20 44 22 72 10528 403871 18648 6017 60881 46% 8 6609 12%
c i 33.98 19 44 22 72 10830 409909 24596 6029 60881 47% 8 6598 12%
c - 34.23 19 44 22 73 11223 412356 19026 6006 60881 47% 8 6598 12%
c d 34.41 19 44 22 73 11388 413566 19590 6178 60039 47% 8 6592 12%
c b 34.41 20 44 22 73 11388 413566 19590 6178 60039 47% 8 6567 12%
c u 34.51 20 44 22 73 11388 413566 19470 6227 60039 47% 8 6567 12%
c v 34.62 20 44 22 73 11388 413566 19305 6380 60039 47% 8 6567 12%
c w 34.73 20 44 22 73 11388 413566 19311 6668 59098 47% 8 6567 12%
c = 34.97 20 44 22 73 11388 413566 19311 6840 58742 47% 8 6480 11%
c d 34.97 20 44 22 73 11388 413566 19297 6552 58740 47% 8 6475 11%
c t 34.98 20 44 22 73 11388 413566 19297 6239 58740 47% 8 6475 11%
c } 35.07 20 44 23 73 11514 414468 20185 6239 58740 47% 8 6475 11%
c [ 35.07 20 56 23 73 11514 414468 20185 6239 58740 54% 12 6475 11%
c
c  seconds   switched     conflicts        irredundant  variables
c         MB   reductions        redundant         trail     remaining
c          level    restarts            binary         glue
c
c O 35.07 20 56 23 73 11514 414468 20185 6239 58740 54% 12 6475 11%
c - 35.22 20 55 23 74 11519 420901 19203 5925 58740 52% 12 6475 11%
c - 35.49 17 52 23 75 11523 429503 18804 5926 58740 48% 12 6475 11%
c - 35.77 18 50 23 76 11527 438166 17729 5926 58740 45% 11 6475 11%
c s 35.84 18 49 23 76 11528 440047 19584 5943 57157 44% 11 6475 11%
c e 35.87 18 49 23 76 11528 440047 19584 5771 58120 44% 11 6325 11%
c 2 35.87 18 49 23 76 11528 440047 19584 5765 58120 44% 11 6325 11%
c s 35.88 18 49 23 76 11528 440047 19584 5775 57531 44% 11 6325 11%
c e 35.90 18 49 23 76 11528 440047 19584 5769 57569 44% 11 6322 11%
c - 36.14 18 47 23 77 11528 446883 16693 5769 57569 42% 11 6322 11%
c i 36.44 19 44 23 77 11534 455400 25047 5775 57569 39% 11 6321 11%
c - 36.45 19 44 23 78 11534 455657 13053 5795 57569 39% 11 6321 11%
c - 36.88 19 44 23 79 11539 464488 15393 5800 57567 39% 11 6321 11%
c B 37.03 20 44 23 79 11541 467257 18117 5800 57567 38% 11 6321 11%
c d 37.09 20 43 23 79 11542 469275 20089 5954 56841 38% 11 6314 11%
c d 37.10 20 43 23 79 11542 469275 20075 5831 56562 38% 11 6253 11%
c u 37.15 18 43 23 79 11542 469275 20066 5840 56562 38% 11 6253 11%
c v 37.21 18 43 23 79 11542 469275 18701 7205 56562 38% 11 6253 11%
c w 37.28 19 43 23 79 11542 469275 18720 7247 56501 38% 11 6253 11%
c = 37.41 19 43 23 79 11542 469275 18720 7287 56475 38% 11 6232 11%
c
c  seconds   switched     conflicts        irredundant  variables
c         MB   reductions        redundant         trail     remaining
c          level    restarts            binary         glue
c
c d 37.41 19 43 23 79 11542 469275 18675 7245 56475 38% 11 6232 11%
c t 37.42 19 43 23 79 11542 469275 18675 5780 56475 38% 11 6232 11%
c - 37.60 19 42 23 80 11543 473378 16743 5776 56475 37% 11 6232 11%
c - 38.17 20 43 23 81 11544 482323 19333 5778 56475 38% 11 6232 11%
c i 38.28 20 43 23 81 11544 486548 23436 5782 56475 38% 11 6184 11%
c - 38.60 20 44 23 82 11544 491324 11401 5529 56475 40% 11 6184 11%
c ] 38.84 17 46 24 82 11544 494950 15009 5530 56475 41% 11 6184 11%
c { 38.84 17 44 24 82 11544 494950 15009 5530 56475 47% 8 6184 11%
c - 39.29 19 43 24 83 11885 500379 13631 5553 56475 47% 8 6184 11%
c i 39.41 19 43 24 83 12024 501767 15001 5557 56475 47% 8 6180 11%
c - 40.13 19 41 24 84 12424 509490 16914 5638 56475 48% 8 6178 11%
c i 40.38 19 41 24 84 12504 512210 19579 5641 56475 48% 8 6164 11%
c - 40.93 20 39 24 85 12727 518656 17487 5703 56475 48% 8 6164 11%
c i 41.16 20 39 24 85 12795 520978 19752 5716 56475 49% 8 6142 11%
c i 41.28 20 39 24 85 12993 521899 20643 5726 56475 49% 8 6141 11%
c i 41.87 20 38 24 85 13453 527505 26188 5748 56475 49% 8 6132 11%
c i 41.93 20 38 24 85 13483 527869 26533 5760 56474 49% 8 6129 11%
c - 41.94 20 38 24 86 13483 527876 16470 5573 56474 49% 8 6129 11%
c d 42.02 18 38 24 86 13618 528484 16597 6231 49698 49% 8 6111 11%
c d 42.02 18 38 24 86 13618 528484 16429 5708 49281 49% 8 5924 10%
c
c  seconds   switched     conflicts        irredundant variables
c         MB   reductions        redundant         trail    remaining
c          level    restarts            binary        glue
c
c u 42.12 18 38 24 86 13618 528484 16382 5754 49281 49% 8 5915 10%
c v 42.22 18 38 24 86 13618 528484 16283 5829 49281 49% 8 5915 10%
c w 42.34 18 38 24 86 13618 528484 16296 5975 49029 49% 8 5915 10%
c = 42.57 19 38 24 86 13618 528484 16296 6535 48825 49% 8 5634 10%
c d 42.58 19 38 24 86 13618 528484 15350 5849 48825 49% 8 5634 10%
c t 42.59 19 38 24 86 13618 528484 15350 5442 48825 49% 8 5634 10%
c i 42.59 19 38 24 86 13618 528484 15350 5442 48825 49% 8 5634 10%
c i 42.75 19 37 24 86 13647 530463 17290 5460 48825 49% 8 5633 10%
c } 42.85 19 37 25 86 13767 531627 18390 5465 48825 49% 8 5633 10%
c [ 42.85 19 46 25 86 13767 531627 18390 5465 48825 41% 11 5633 10%
c W 42.87 19 46 25 86 13767 531627 18390 5379 48811 41% 11 5633 10%
c - 43.31 19 46 25 87 13771 537149 14366 5382 48811 43% 11 5633 10%
c - 43.98 21 45 25 88 13775 546476 14543 5393 48811 44% 11 5633 10%
c - 44.67 21 45 25 89 13780 555856 14604 5396 48811 45% 12 5633 10%
c - 45.28 22 43 25 90 13782 565289 15443 5401 48811 47% 12 5633 10%
c - 45.93 20 41 25 91 13788 574776 16501 5407 48811 48% 12 5633 10%
c i 46.01 20 41 25 91 13788 576050 17764 5412 48811 48% 12 5629 10%
c s 46.28 21 41 25 91 13791 579678 21356 5467 46566 49% 12 5629 10%
c e 46.34 19 41 25 91 13791 579678 21356 5171 48695 49% 12 5346 9%
c 2 46.34 19 41 25 91 13791 579678 21356 5169 48695 49% 12 5346 9%
c
c  seconds   switched     conflicts        irredundant  variables
c         MB   reductions        redundant         trail    remaining
c          level    restarts            binary         glue
c
c s 46.35 19 41 25 91 13791 579678 21356 5229 47049 49% 12 5346 9%
c e 46.38 19 41 25 91 13791 579678 21356 5161 47168 49% 12 5290 9%
c - 46.70 20 40 25 92 13794 584316 10712 5610 46770 49% 12 5290 9%
c ] 46.98 20 40 26 92 13795 588798 15153 5617 46770 49% 12 5290 9%
c { 46.98 21 37 26 92 13795 588798 15153 5617 46770 49% 8 5290 9%
c d 47.16 21 37 26 92 13989 590107 16383 5224 45579 49% 8 5093 9%
c b 47.17 21 37 26 92 13989 590107 16383 5224 45579 49% 8 5089 9%
c u 47.25 21 37 26 92 13989 590107 16152 5364 45579 49% 8 5089 9%
c v 47.34 21 37 26 92 13989 590107 16073 5379 45579 49% 8 5089 9%
c w 47.44 19 37 26 92 13989 590107 16080 5885 44322 49% 8 5089 9%
c = 47.65 20 37 26 92 13989 590107 16080 6039 44256 49% 8 5012 9%
c d 47.66 20 37 26 92 13989 590107 15952 5379 42888 49% 8 4772 8%
c t 47.66 20 37 26 92 13989 590107 15952 4912 42888 49% 8 4772 8%
c i 47.95 20 36 26 92 14134 593547 19364 4918 42888 49% 8 4752 8%
c - 47.99 21 36 26 93 14195 593907 11804 4920 42483 49% 8 4752 8%
c i 48.59 21 35 26 93 14562 601281 19061 4948 42481 49% 8 4745 8%
c i 48.59 21 35 26 93 14562 601282 19061 4948 42481 49% 8 4743 8%
c - 48.78 21 34 26 94 14630 603552 15837 4896 42480 49% 8 4743 8%
c - 49.60 20 33 26 95 15084 613247 19583 4921 42477 50% 8 4743 8%
c i 49.92 21 32 26 95 15341 617862 24142 4951 42475 50% 8 4742 8%
c
c  seconds   switched     conflicts        irredundant variables
c         MB   reductions        redundant         trail   remaining
c          level    restarts            binary        glue
c
c i 49.92 21 32 26 95 15341 617863 24142 4951 42475 50% 8 4740 8%
c i 49.92 21 32 26 95 15341 617864 24142 4951 42475 50% 8 4737 8%
c i 49.92 21 32 26 95 15341 617865 24142 4951 42475 50% 8 4733 8%
c i 49.96 21 32 26 95 15358 618293 24556 4962 42474 50% 8 4729 8%
c i 50.05 21 32 26 95 15365 619682 25928 4971 42474 50% 8 4721 8%
c i 50.17 21 32 26 95 15426 620958 27188 4979 42473 51% 8 4711 8%
c - 50.33 21 31 26 96 15599 622993 16796 4881 42473 50% 8 4711 8%
c i 50.48 20 31 26 96 15668 624981 18749 4899 42472 51% 8 4709 8%
c i 50.68 20 31 26 96 15822 627478 21199 4920 42472 51% 8 4704 8%
c } 50.98 20 30 27 96 15969 631017 24704 4934 42472 51% 8 4704 8%
c [ 50.98 20 40 27 96 15969 631017 24704 4934 42472 49% 12 4704 8%
c I 50.98 20 40 27 96 15969 631017 24704 4934 42472 49% 12 4704 8%
c - 51.09 20 40 27 97 15970 632790 16934 4873 42472 49% 12 4704 8%
c - 51.64 21 39 27 98 15975 642639 16210 4881 42471 49% 12 4704 8%
c - 52.20 21 38 27 99 15982 652539 15754 4888 42470 51% 12 4704 8%
c d 52.30 19 38 27 99 15982 654136 17248 5116 39533 51% 12 4626 8%
c d 52.30 19 38 27 99 15982 654136 17089 4748 38872 51% 12 4451 8%
c b 52.30 19 38 27 99 15982 654136 17089 4748 38872 51% 12 4419 8%
c u 52.40 20 38 27 99 15982 654136 15857 5135 38872 51% 12 4416 8%
c v 52.49 20 38 27 99 15982 654136 14768 5287 38872 51% 12 4416 8%
c
c  seconds   switched     conflicts        irredundant  variables
c         MB   reductions        redundant         trail    remaining
c          level    restarts            binary         glue
c
c w 52.60 20 38 27 99 15982 654136 14783 5609 37305 51% 12 4416 8%
c = 52.84 20 38 27 99 15982 654136 14783 6123 36148 51% 12 4157 7%
c d 52.85 20 38 27 99 15982 654136 14477 5255 35919 51% 12 4099 7%
c t 52.85 20 38 27 99 15982 654136 14477 4613 35919 51% 12 4099 7%
c b 52.86 20 38 27 99 15982 654136 14477 4613 35919 51% 12 4097 7%
c i 52.86 20 38 27 99 15982 654136 14477 4613 35919 51% 12 4097 7%
c - 53.29 16 38 27 100 15983 662489 14187 4362 35885 51% 12 4097 7%
c - 53.74 16 36 27 101 15990 672489 14119 4367 35885 51% 12 4097 7%
c - 54.21 16 36 27 102 15996 682538 14063 4368 35885 52% 12 4097 7%
c - 54.68 15 35 27 103 15998 692638 14387 4372 35885 53% 12 4097 7%
c B 54.98 16 35 27 103 15999 698699 20389 4395 35882 53% 12 4097 7%
c - 55.19 16 35 27 104 15999 702786 15235 4395 35882 53% 12 4097 7%
c ] 55.35 15 35 28 104 15999 706337 18749 4395 35882 54% 12 4097 7%
c { 55.35 15 30 28 104 15999 706337 18749 4395 35882 51% 8 4097 7%
c - 55.76 16 29 28 105 16260 712985 17071 4408 35881 51% 8 4097 7%
c d 56.19 17 28 28 105 16507 719980 24011 4436 35797 52% 8 4093 7%
c d 56.20 17 28 28 105 16507 719980 24001 4447 35768 52% 8 4092 7%
c b 56.20 17 28 28 105 16507 719980 24001 4447 35768 52% 8 4034 7%
c u 56.27 17 28 28 105 16507 719980 22594 4778 35768 52% 8 3993 7%
c v 56.36 15 28 28 105 16507 719980 20350 4908 35768 52% 8 3958 7%
c
c  seconds   switched      conflicts        irredundant variables
c         MB   reductions         redundant         trail   remaining
c          level     restarts            binary        glue
c
c w 56.44 16 28 28 105 16507 719980 20419 6207 31694 52% 8 3953 7%
c = 56.66 16 28 28 105 16507 719980 20419 7535 26767 52% 8 3254 6%
c d 56.67 16 28 28 105 16507 719980 15528 5241 25237 52% 8 2942 5%
c d 56.67 16 28 28 105 16507 719980 15466 5151 25062 52% 8 2902 5%
c t 56.67 16 28 28 105 16507 719980 15466 4803 25062 52% 8 2900 5%
c b 56.67 16 28 28 105 16507 719980 15466 4803 25062 52% 8 2895 5%
c i 56.67 16 28 28 105 16507 719980 15466 4803 25062 52% 8 2895 5%
c i 56.72 15 28 28 105 16556 721116 16586 4812 25060 52% 8 2892 5%
c - 56.83 15 28 28 106 16589 723231 14014 3310 24904 52% 8 2892 5%
c i 56.86 15 28 28 106 16589 723876 14650 3316 24904 52% 8 2851 5%
c i 56.89 15 28 28 106 16621 724482 15244 3320 24904 52% 8 2850 5%
c i 56.96 15 28 28 106 16630 725958 16697 3334 24904 52% 8 2633 5%
c i 56.96 15 28 28 106 16636 726040 16771 3335 24904 52% 8 2627 5%
c i 56.96 15 28 28 106 16636 726041 16771 3335 24904 52% 8 2622 5%
c i 56.98 15 28 28 106 16655 726443 17163 3338 24903 52% 8 2621 5%
c i 57.11 15 27 28 106 16694 730580 21128 3378 24901 52% 8 2613 5%
c i 57.11 16 27 28 106 16694 730585 21129 3379 24901 52% 8 2602 5%
c i 57.12 16 27 28 106 16694 730601 21138 3382 24900 52% 8 2601 5%
c i 57.13 16 27 28 106 16694 731068 21585 3397 24900 52% 8 2577 5%
c i 57.14 16 27 28 106 16694 731150 21657 3401 24899 52% 8 2571 5%
c
c  seconds   switched      conflicts        irredundant variables
c         MB   reductions         redundant         trail   remaining
c          level     restarts            binary        glue
c
c i 57.16 16 27 28 106 16702 731699 22186 3409 24898 52% 8 2566 5%
c i 57.16 16 27 28 106 16702 731746 22220 3413 24898 52% 8 2565 5%
c i 57.17 16 27 28 106 16702 732073 22537 3417 24898 52% 8 2558 5%
c - 57.22 14 27 28 107 16720 733527 5708 4811 16306 52% 8 2558 5%
c i 57.24 12 27 28 107 16720 734021 6190 4817 16306 52% 8 2543 4%
c i 57.25 12 27 28 107 16720 734482 6632 4823 16306 52% 8 2538 4%
c i 57.25 12 27 28 107 16720 734498 6647 4823 16306 52% 8 2517 4%
c i 57.29 12 26 28 107 16720 735851 7949 4836 16305 52% 8 2237 4%
c i 57.29 12 26 28 107 16720 736087 8151 4842 16305 52% 8 2235 4%
c i 57.29 12 26 28 107 16720 736117 8176 4844 16305 52% 8 2234 4%
c i 57.29 12 26 28 107 16720 736118 8176 4844 16305 52% 8 2215 4%
c i 57.29 12 26 28 107 16720 736119 8176 4844 16305 52% 8 2213 4%
c i 57.29 12 26 28 107 16720 736135 8187 4847 16305 52% 8 2190 4%
c i 57.29 12 26 28 107 16720 736140 8190 4848 16305 52% 8 2186 4%
c i 57.29 12 26 28 107 16720 736141 8190 4848 16305 52% 8 2112 4%
c } 57.29 12 26 28 107 16720 736144 8190 4849 16305 52% 8 2023 4%
c 0 57.29 12 26 28 107 16720 736144 8190 4849 16305 52% 8 2023 4%
c
c ---- [ result ] ------------------------------------------------------------
c
s UNSATISFIABLE
c
c ---- [ profiling ] ---------------------------------------------------------
c
c          48.37   84.42 %  search
c          26.25   45.82 %  stable
c          22.12   38.61 %  focused
c           8.85   15.45 %  simplify
c           7.10   12.39 %  probe
c           3.68    6.41 %  vivify
c           2.85    4.98 %  sweep
c           1.60    2.78 %  eliminate
c           0.43    0.75 %  reduce
c           0.42    0.74 %  substitute
c           0.22    0.39 %  subsume
c           0.16    0.28 %  walking
c           0.10    0.18 %  transitive
c           0.07    0.12 %  parse
c           0.05    0.08 %  backbone
c           0.00    0.00 %  warmup
c =============================================
c          57.29  100.00 %  total
c
c ---- [ statistics ] --------------------------------------------------------
c
c chronological:                          816                0 %  conflicts
c conflicts:                           736144            12848.14 per second
c decisions:                          2433167                3.31 per conflict
c eliminated:                           47956               84 %  variables
c jumped_reasons:                    42744032               16 %  propagations
c propagations:                     267897217          4675688    per second
c queue_decisions:                    1236789               51 %  decision
c random_decisions:                    161456                7 %  decision
c random_sequences:                       207             3556    interval
c reductions:                             107             6880    interval
c rephased:                                22            33461    interval
c restarts:                             16720               44.03 interval
c score_decisions:                    1034922               43 %  decision
c strengthened:                         28603                0 %  checks
c substituted:                           4675                8 %  variables
c subsumed:                             15445                0 %  checks
c switched:                                28            26291    interval
c vivified:                             17374               23 %  checks
c vivify_checks:                        75228             3419    per vivify
c vivify_units:                            48                0 %  variables
c walk_improved:                            7              100 %  walks
c walks:                                    7           105163    interval
c
c ---- [ resources ] ---------------------------------------------------------
c
c maximum-resident-set-size:         29122560 bytes         28 MB
c process-time:                            57s              57.29 seconds
c
c ---- [ shutting down ] -----------------------------------------------------
c
c exit 20
